\ This file has been generated by DOcplex
\ ENCODING=ISO-8859-1
\Problem name: AMC CVRP Docplex Model

Minimize
 obj: - 32697 x_0_1 - 33660 x_0_2 - 32697 x_1_0 - 42646593416 x_1_2
      - 33660 x_2_0 - 42607646816 x_2_1 - 247842 cum_u_1@0 - 495684 cum_u_1@1
      - 991368 cum_u_1@2 - 1239210 cum_u_1@3 - 141624 cum_u_2@0
      - 283248 cum_u_2@1 - 566496 cum_u_2@2 - 708120 cum_u_2@3
      - 38769570 c4@int_slack@0 - 77539140 c4@int_slack@1
      - 155078280 c4@int_slack@2 - 310156560 c4@int_slack@3
      - 620313120 c4@int_slack@4 - 1240626240 c4@int_slack@5
      - 2481252480 c4@int_slack@6 - 4962504960 c4@int_slack@7
      - 9925009920 c4@int_slack@8 - 19850019840 c4@int_slack@9
      - 3256643880 c4@int_slack@10 - 38734164 c5@int_slack@0
      - 77468328 c5@int_slack@1 - 154936656 c5@int_slack@2
      - 309873312 c5@int_slack@3 - 619746624 c5@int_slack@4
      - 1239493248 c5@int_slack@5 - 2478986496 c5@int_slack@6
      - 4957972992 c5@int_slack@7 - 9915945984 c5@int_slack@8
      - 19831891968 c5@int_slack@9 - 3214935612 c5@int_slack@10
      + 212436 c6@int_slack@0 + 424872 c6@int_slack@1 + 637308 c6@int_slack@2
      + 177030 c7@int_slack@0 + 354060 c7@int_slack@1 + 708120 c7@int_slack@2 +
      [ 35406 x_0_1^2 + 70812 x_0_1*x_2_1 + 35406 x_0_2^2 + 70812 x_0_2*x_1_2
      + 35406 x_1_0^2 + 70812 x_1_0*x_1_2 + 42841330812 x_1_2^2
      + 77893200 x_1_2*cum_u_1@0 + 155786400 x_1_2*cum_u_1@1
      + 311572800 x_1_2*cum_u_1@2 + 389466000 x_1_2*cum_u_1@3
      - 77893200 x_1_2*cum_u_2@0 - 155786400 x_1_2*cum_u_2@1
      - 311572800 x_1_2*cum_u_2@2 - 389466000 x_1_2*cum_u_2@3
      + 77893200 x_1_2*c4@int_slack@0 + 155786400 x_1_2*c4@int_slack@1
      + 311572800 x_1_2*c4@int_slack@2 + 623145600 x_1_2*c4@int_slack@3
      + 1246291200 x_1_2*c4@int_slack@4 + 2492582400 x_1_2*c4@int_slack@5
      + 4985164800 x_1_2*c4@int_slack@6 + 9970329600 x_1_2*c4@int_slack@7
      + 19940659200 x_1_2*c4@int_slack@8 + 39881318400 x_1_2*c4@int_slack@9
      + 6543028800 x_1_2*c4@int_slack@10 + 35406 x_2_0^2 + 70812 x_2_0*x_2_1
      + 42841330812 x_2_1^2 - 77893200 x_2_1*cum_u_1@0
      - 155786400 x_2_1*cum_u_1@1 - 311572800 x_2_1*cum_u_1@2
      - 389466000 x_2_1*cum_u_1@3 + 77893200 x_2_1*cum_u_2@0
      + 155786400 x_2_1*cum_u_2@1 + 311572800 x_2_1*cum_u_2@2
      + 389466000 x_2_1*cum_u_2@3 + 77893200 x_2_1*c5@int_slack@0
      + 155786400 x_2_1*c5@int_slack@1 + 311572800 x_2_1*c5@int_slack@2
      + 623145600 x_2_1*c5@int_slack@3 + 1246291200 x_2_1*c5@int_slack@4
      + 2492582400 x_2_1*c5@int_slack@5 + 4985164800 x_2_1*c5@int_slack@6
      + 9970329600 x_2_1*c5@int_slack@7 + 19940659200 x_2_1*c5@int_slack@8
      + 39881318400 x_2_1*c5@int_slack@9 + 6465135600 x_2_1*c5@int_slack@10
      + 106218 cum_u_1@0^2 + 424872 cum_u_1@0*cum_u_1@1
      + 849744 cum_u_1@0*cum_u_1@2 + 1062180 cum_u_1@0*cum_u_1@3
      - 141624 cum_u_1@0*cum_u_2@0 - 283248 cum_u_1@0*cum_u_2@1
      - 566496 cum_u_1@0*cum_u_2@2 - 708120 cum_u_1@0*cum_u_2@3
      + 70812 cum_u_1@0*c4@int_slack@0 + 141624 cum_u_1@0*c4@int_slack@1
      + 283248 cum_u_1@0*c4@int_slack@2 + 566496 cum_u_1@0*c4@int_slack@3
      + 1132992 cum_u_1@0*c4@int_slack@4 + 2265984 cum_u_1@0*c4@int_slack@5
      + 4531968 cum_u_1@0*c4@int_slack@6 + 9063936 cum_u_1@0*c4@int_slack@7
      + 18127872 cum_u_1@0*c4@int_slack@8 + 36255744 cum_u_1@0*c4@int_slack@9
      + 5948208 cum_u_1@0*c4@int_slack@10 - 70812 cum_u_1@0*c5@int_slack@0
      - 141624 cum_u_1@0*c5@int_slack@1 - 283248 cum_u_1@0*c5@int_slack@2
      - 566496 cum_u_1@0*c5@int_slack@3 - 1132992 cum_u_1@0*c5@int_slack@4
      - 2265984 cum_u_1@0*c5@int_slack@5 - 4531968 cum_u_1@0*c5@int_slack@6
      - 9063936 cum_u_1@0*c5@int_slack@7 - 18127872 cum_u_1@0*c5@int_slack@8
      - 36255744 cum_u_1@0*c5@int_slack@9 - 5877396 cum_u_1@0*c5@int_slack@10
      - 70812 cum_u_1@0*c6@int_slack@0 - 141624 cum_u_1@0*c6@int_slack@1
      - 212436 cum_u_1@0*c6@int_slack@2 + 424872 cum_u_1@1^2
      + 1699488 cum_u_1@1*cum_u_1@2 + 2124360 cum_u_1@1*cum_u_1@3
      - 283248 cum_u_1@1*cum_u_2@0 - 566496 cum_u_1@1*cum_u_2@1
      - 1132992 cum_u_1@1*cum_u_2@2 - 1416240 cum_u_1@1*cum_u_2@3
      + 141624 cum_u_1@1*c4@int_slack@0 + 283248 cum_u_1@1*c4@int_slack@1
      + 566496 cum_u_1@1*c4@int_slack@2 + 1132992 cum_u_1@1*c4@int_slack@3
      + 2265984 cum_u_1@1*c4@int_slack@4 + 4531968 cum_u_1@1*c4@int_slack@5
      + 9063936 cum_u_1@1*c4@int_slack@6 + 18127872 cum_u_1@1*c4@int_slack@7
      + 36255744 cum_u_1@1*c4@int_slack@8 + 72511488 cum_u_1@1*c4@int_slack@9
      + 11896416 cum_u_1@1*c4@int_slack@10 - 141624 cum_u_1@1*c5@int_slack@0
      - 283248 cum_u_1@1*c5@int_slack@1 - 566496 cum_u_1@1*c5@int_slack@2
      - 1132992 cum_u_1@1*c5@int_slack@3 - 2265984 cum_u_1@1*c5@int_slack@4
      - 4531968 cum_u_1@1*c5@int_slack@5 - 9063936 cum_u_1@1*c5@int_slack@6
      - 18127872 cum_u_1@1*c5@int_slack@7 - 36255744 cum_u_1@1*c5@int_slack@8
      - 72511488 cum_u_1@1*c5@int_slack@9 - 11754792 cum_u_1@1*c5@int_slack@10
      - 141624 cum_u_1@1*c6@int_slack@0 - 283248 cum_u_1@1*c6@int_slack@1
      - 424872 cum_u_1@1*c6@int_slack@2 + 1699488 cum_u_1@2^2
      + 4248720 cum_u_1@2*cum_u_1@3 - 566496 cum_u_1@2*cum_u_2@0
      - 1132992 cum_u_1@2*cum_u_2@1 - 2265984 cum_u_1@2*cum_u_2@2
      - 2832480 cum_u_1@2*cum_u_2@3 + 283248 cum_u_1@2*c4@int_slack@0
      + 566496 cum_u_1@2*c4@int_slack@1 + 1132992 cum_u_1@2*c4@int_slack@2
      + 2265984 cum_u_1@2*c4@int_slack@3 + 4531968 cum_u_1@2*c4@int_slack@4
      + 9063936 cum_u_1@2*c4@int_slack@5 + 18127872 cum_u_1@2*c4@int_slack@6
      + 36255744 cum_u_1@2*c4@int_slack@7 + 72511488 cum_u_1@2*c4@int_slack@8
      + 145022976 cum_u_1@2*c4@int_slack@9 + 23792832 cum_u_1@2*c4@int_slack@10
      - 283248 cum_u_1@2*c5@int_slack@0 - 566496 cum_u_1@2*c5@int_slack@1
      - 1132992 cum_u_1@2*c5@int_slack@2 - 2265984 cum_u_1@2*c5@int_slack@3
      - 4531968 cum_u_1@2*c5@int_slack@4 - 9063936 cum_u_1@2*c5@int_slack@5
      - 18127872 cum_u_1@2*c5@int_slack@6 - 36255744 cum_u_1@2*c5@int_slack@7
      - 72511488 cum_u_1@2*c5@int_slack@8 - 145022976 cum_u_1@2*c5@int_slack@9
      - 23509584 cum_u_1@2*c5@int_slack@10 - 283248 cum_u_1@2*c6@int_slack@0
      - 566496 cum_u_1@2*c6@int_slack@1 - 849744 cum_u_1@2*c6@int_slack@2
      + 2655450 cum_u_1@3^2 - 708120 cum_u_1@3*cum_u_2@0
      - 1416240 cum_u_1@3*cum_u_2@1 - 2832480 cum_u_1@3*cum_u_2@2
      - 3540600 cum_u_1@3*cum_u_2@3 + 354060 cum_u_1@3*c4@int_slack@0
      + 708120 cum_u_1@3*c4@int_slack@1 + 1416240 cum_u_1@3*c4@int_slack@2
      + 2832480 cum_u_1@3*c4@int_slack@3 + 5664960 cum_u_1@3*c4@int_slack@4
      + 11329920 cum_u_1@3*c4@int_slack@5 + 22659840 cum_u_1@3*c4@int_slack@6
      + 45319680 cum_u_1@3*c4@int_slack@7 + 90639360 cum_u_1@3*c4@int_slack@8
      + 181278720 cum_u_1@3*c4@int_slack@9 + 29741040 cum_u_1@3*c4@int_slack@10
      - 354060 cum_u_1@3*c5@int_slack@0 - 708120 cum_u_1@3*c5@int_slack@1
      - 1416240 cum_u_1@3*c5@int_slack@2 - 2832480 cum_u_1@3*c5@int_slack@3
      - 5664960 cum_u_1@3*c5@int_slack@4 - 11329920 cum_u_1@3*c5@int_slack@5
      - 22659840 cum_u_1@3*c5@int_slack@6 - 45319680 cum_u_1@3*c5@int_slack@7
      - 90639360 cum_u_1@3*c5@int_slack@8 - 181278720 cum_u_1@3*c5@int_slack@9
      - 29386980 cum_u_1@3*c5@int_slack@10 - 354060 cum_u_1@3*c6@int_slack@0
      - 708120 cum_u_1@3*c6@int_slack@1 - 1062180 cum_u_1@3*c6@int_slack@2
      + 106218 cum_u_2@0^2 + 424872 cum_u_2@0*cum_u_2@1
      + 849744 cum_u_2@0*cum_u_2@2 + 1062180 cum_u_2@0*cum_u_2@3
      - 70812 cum_u_2@0*c4@int_slack@0 - 141624 cum_u_2@0*c4@int_slack@1
      - 283248 cum_u_2@0*c4@int_slack@2 - 566496 cum_u_2@0*c4@int_slack@3
      - 1132992 cum_u_2@0*c4@int_slack@4 - 2265984 cum_u_2@0*c4@int_slack@5
      - 4531968 cum_u_2@0*c4@int_slack@6 - 9063936 cum_u_2@0*c4@int_slack@7
      - 18127872 cum_u_2@0*c4@int_slack@8 - 36255744 cum_u_2@0*c4@int_slack@9
      - 5948208 cum_u_2@0*c4@int_slack@10 + 70812 cum_u_2@0*c5@int_slack@0
      + 141624 cum_u_2@0*c5@int_slack@1 + 283248 cum_u_2@0*c5@int_slack@2
      + 566496 cum_u_2@0*c5@int_slack@3 + 1132992 cum_u_2@0*c5@int_slack@4
      + 2265984 cum_u_2@0*c5@int_slack@5 + 4531968 cum_u_2@0*c5@int_slack@6
      + 9063936 cum_u_2@0*c5@int_slack@7 + 18127872 cum_u_2@0*c5@int_slack@8
      + 36255744 cum_u_2@0*c5@int_slack@9 + 5877396 cum_u_2@0*c5@int_slack@10
      - 70812 cum_u_2@0*c7@int_slack@0 - 141624 cum_u_2@0*c7@int_slack@1
      - 283248 cum_u_2@0*c7@int_slack@2 + 424872 cum_u_2@1^2
      + 1699488 cum_u_2@1*cum_u_2@2 + 2124360 cum_u_2@1*cum_u_2@3
      - 141624 cum_u_2@1*c4@int_slack@0 - 283248 cum_u_2@1*c4@int_slack@1
      - 566496 cum_u_2@1*c4@int_slack@2 - 1132992 cum_u_2@1*c4@int_slack@3
      - 2265984 cum_u_2@1*c4@int_slack@4 - 4531968 cum_u_2@1*c4@int_slack@5
      - 9063936 cum_u_2@1*c4@int_slack@6 - 18127872 cum_u_2@1*c4@int_slack@7
      - 36255744 cum_u_2@1*c4@int_slack@8 - 72511488 cum_u_2@1*c4@int_slack@9
      - 11896416 cum_u_2@1*c4@int_slack@10 + 141624 cum_u_2@1*c5@int_slack@0
      + 283248 cum_u_2@1*c5@int_slack@1 + 566496 cum_u_2@1*c5@int_slack@2
      + 1132992 cum_u_2@1*c5@int_slack@3 + 2265984 cum_u_2@1*c5@int_slack@4
      + 4531968 cum_u_2@1*c5@int_slack@5 + 9063936 cum_u_2@1*c5@int_slack@6
      + 18127872 cum_u_2@1*c5@int_slack@7 + 36255744 cum_u_2@1*c5@int_slack@8
      + 72511488 cum_u_2@1*c5@int_slack@9 + 11754792 cum_u_2@1*c5@int_slack@10
      - 141624 cum_u_2@1*c7@int_slack@0 - 283248 cum_u_2@1*c7@int_slack@1
      - 566496 cum_u_2@1*c7@int_slack@2 + 1699488 cum_u_2@2^2
      + 4248720 cum_u_2@2*cum_u_2@3 - 283248 cum_u_2@2*c4@int_slack@0
      - 566496 cum_u_2@2*c4@int_slack@1 - 1132992 cum_u_2@2*c4@int_slack@2
      - 2265984 cum_u_2@2*c4@int_slack@3 - 4531968 cum_u_2@2*c4@int_slack@4
      - 9063936 cum_u_2@2*c4@int_slack@5 - 18127872 cum_u_2@2*c4@int_slack@6
      - 36255744 cum_u_2@2*c4@int_slack@7 - 72511488 cum_u_2@2*c4@int_slack@8
      - 145022976 cum_u_2@2*c4@int_slack@9 - 23792832 cum_u_2@2*c4@int_slack@10
      + 283248 cum_u_2@2*c5@int_slack@0 + 566496 cum_u_2@2*c5@int_slack@1
      + 1132992 cum_u_2@2*c5@int_slack@2 + 2265984 cum_u_2@2*c5@int_slack@3
      + 4531968 cum_u_2@2*c5@int_slack@4 + 9063936 cum_u_2@2*c5@int_slack@5
      + 18127872 cum_u_2@2*c5@int_slack@6 + 36255744 cum_u_2@2*c5@int_slack@7
      + 72511488 cum_u_2@2*c5@int_slack@8 + 145022976 cum_u_2@2*c5@int_slack@9
      + 23509584 cum_u_2@2*c5@int_slack@10 - 283248 cum_u_2@2*c7@int_slack@0
      - 566496 cum_u_2@2*c7@int_slack@1 - 1132992 cum_u_2@2*c7@int_slack@2
      + 2655450 cum_u_2@3^2 - 354060 cum_u_2@3*c4@int_slack@0
      - 708120 cum_u_2@3*c4@int_slack@1 - 1416240 cum_u_2@3*c4@int_slack@2
      - 2832480 cum_u_2@3*c4@int_slack@3 - 5664960 cum_u_2@3*c4@int_slack@4
      - 11329920 cum_u_2@3*c4@int_slack@5 - 22659840 cum_u_2@3*c4@int_slack@6
      - 45319680 cum_u_2@3*c4@int_slack@7 - 90639360 cum_u_2@3*c4@int_slack@8
      - 181278720 cum_u_2@3*c4@int_slack@9 - 29741040 cum_u_2@3*c4@int_slack@10
      + 354060 cum_u_2@3*c5@int_slack@0 + 708120 cum_u_2@3*c5@int_slack@1
      + 1416240 cum_u_2@3*c5@int_slack@2 + 2832480 cum_u_2@3*c5@int_slack@3
      + 5664960 cum_u_2@3*c5@int_slack@4 + 11329920 cum_u_2@3*c5@int_slack@5
      + 22659840 cum_u_2@3*c5@int_slack@6 + 45319680 cum_u_2@3*c5@int_slack@7
      + 90639360 cum_u_2@3*c5@int_slack@8 + 181278720 cum_u_2@3*c5@int_slack@9
      + 29386980 cum_u_2@3*c5@int_slack@10 - 354060 cum_u_2@3*c7@int_slack@0
      - 708120 cum_u_2@3*c7@int_slack@1 - 1416240 cum_u_2@3*c7@int_slack@2
      + 35406 c4@int_slack@0^2 + 141624 c4@int_slack@0*c4@int_slack@1
      + 283248 c4@int_slack@0*c4@int_slack@2
      + 566496 c4@int_slack@0*c4@int_slack@3
      + 1132992 c4@int_slack@0*c4@int_slack@4
      + 2265984 c4@int_slack@0*c4@int_slack@5
      + 4531968 c4@int_slack@0*c4@int_slack@6
      + 9063936 c4@int_slack@0*c4@int_slack@7
      + 18127872 c4@int_slack@0*c4@int_slack@8
      + 36255744 c4@int_slack@0*c4@int_slack@9
      + 5948208 c4@int_slack@0*c4@int_slack@10 + 141624 c4@int_slack@1^2
      + 566496 c4@int_slack@1*c4@int_slack@2
      + 1132992 c4@int_slack@1*c4@int_slack@3
      + 2265984 c4@int_slack@1*c4@int_slack@4
      + 4531968 c4@int_slack@1*c4@int_slack@5
      + 9063936 c4@int_slack@1*c4@int_slack@6
      + 18127872 c4@int_slack@1*c4@int_slack@7
      + 36255744 c4@int_slack@1*c4@int_slack@8
      + 72511488 c4@int_slack@1*c4@int_slack@9
      + 11896416 c4@int_slack@1*c4@int_slack@10 + 566496 c4@int_slack@2^2
      + 2265984 c4@int_slack@2*c4@int_slack@3
      + 4531968 c4@int_slack@2*c4@int_slack@4
      + 9063936 c4@int_slack@2*c4@int_slack@5
      + 18127872 c4@int_slack@2*c4@int_slack@6
      + 36255744 c4@int_slack@2*c4@int_slack@7
      + 72511488 c4@int_slack@2*c4@int_slack@8
      + 145022976 c4@int_slack@2*c4@int_slack@9
      + 23792832 c4@int_slack@2*c4@int_slack@10 + 2265984 c4@int_slack@3^2
      + 9063936 c4@int_slack@3*c4@int_slack@4
      + 18127872 c4@int_slack@3*c4@int_slack@5
      + 36255744 c4@int_slack@3*c4@int_slack@6
      + 72511488 c4@int_slack@3*c4@int_slack@7
      + 145022976 c4@int_slack@3*c4@int_slack@8
      + 290045952 c4@int_slack@3*c4@int_slack@9
      + 47585664 c4@int_slack@3*c4@int_slack@10 + 9063936 c4@int_slack@4^2
      + 36255744 c4@int_slack@4*c4@int_slack@5
      + 72511488 c4@int_slack@4*c4@int_slack@6
      + 145022976 c4@int_slack@4*c4@int_slack@7
      + 290045952 c4@int_slack@4*c4@int_slack@8
      + 580091904 c4@int_slack@4*c4@int_slack@9
      + 95171328 c4@int_slack@4*c4@int_slack@10 + 36255744 c4@int_slack@5^2
      + 145022976 c4@int_slack@5*c4@int_slack@6
      + 290045952 c4@int_slack@5*c4@int_slack@7
      + 580091904 c4@int_slack@5*c4@int_slack@8
      + 1160183808 c4@int_slack@5*c4@int_slack@9
      + 190342656 c4@int_slack@5*c4@int_slack@10 + 145022976 c4@int_slack@6^2
      + 580091904 c4@int_slack@6*c4@int_slack@7
      + 1160183808 c4@int_slack@6*c4@int_slack@8
      + 2320367616 c4@int_slack@6*c4@int_slack@9
      + 380685312 c4@int_slack@6*c4@int_slack@10 + 580091904 c4@int_slack@7^2
      + 2320367616 c4@int_slack@7*c4@int_slack@8
      + 4640735232 c4@int_slack@7*c4@int_slack@9
      + 761370624 c4@int_slack@7*c4@int_slack@10 + 2320367616 c4@int_slack@8^2
      + 9281470464 c4@int_slack@8*c4@int_slack@9
      + 1522741248 c4@int_slack@8*c4@int_slack@10 + 9281470464 c4@int_slack@9^2
      + 3045482496 c4@int_slack@9*c4@int_slack@10 + 249824736 c4@int_slack@10^2
      + 35406 c5@int_slack@0^2 + 141624 c5@int_slack@0*c5@int_slack@1
      + 283248 c5@int_slack@0*c5@int_slack@2
      + 566496 c5@int_slack@0*c5@int_slack@3
      + 1132992 c5@int_slack@0*c5@int_slack@4
      + 2265984 c5@int_slack@0*c5@int_slack@5
      + 4531968 c5@int_slack@0*c5@int_slack@6
      + 9063936 c5@int_slack@0*c5@int_slack@7
      + 18127872 c5@int_slack@0*c5@int_slack@8
      + 36255744 c5@int_slack@0*c5@int_slack@9
      + 5877396 c5@int_slack@0*c5@int_slack@10 + 141624 c5@int_slack@1^2
      + 566496 c5@int_slack@1*c5@int_slack@2
      + 1132992 c5@int_slack@1*c5@int_slack@3
      + 2265984 c5@int_slack@1*c5@int_slack@4
      + 4531968 c5@int_slack@1*c5@int_slack@5
      + 9063936 c5@int_slack@1*c5@int_slack@6
      + 18127872 c5@int_slack@1*c5@int_slack@7
      + 36255744 c5@int_slack@1*c5@int_slack@8
      + 72511488 c5@int_slack@1*c5@int_slack@9
      + 11754792 c5@int_slack@1*c5@int_slack@10 + 566496 c5@int_slack@2^2
      + 2265984 c5@int_slack@2*c5@int_slack@3
      + 4531968 c5@int_slack@2*c5@int_slack@4
      + 9063936 c5@int_slack@2*c5@int_slack@5
      + 18127872 c5@int_slack@2*c5@int_slack@6
      + 36255744 c5@int_slack@2*c5@int_slack@7
      + 72511488 c5@int_slack@2*c5@int_slack@8
      + 145022976 c5@int_slack@2*c5@int_slack@9
      + 23509584 c5@int_slack@2*c5@int_slack@10 + 2265984 c5@int_slack@3^2
      + 9063936 c5@int_slack@3*c5@int_slack@4
      + 18127872 c5@int_slack@3*c5@int_slack@5
      + 36255744 c5@int_slack@3*c5@int_slack@6
      + 72511488 c5@int_slack@3*c5@int_slack@7
      + 145022976 c5@int_slack@3*c5@int_slack@8
      + 290045952 c5@int_slack@3*c5@int_slack@9
      + 47019168 c5@int_slack@3*c5@int_slack@10 + 9063936 c5@int_slack@4^2
      + 36255744 c5@int_slack@4*c5@int_slack@5
      + 72511488 c5@int_slack@4*c5@int_slack@6
      + 145022976 c5@int_slack@4*c5@int_slack@7
      + 290045952 c5@int_slack@4*c5@int_slack@8
      + 580091904 c5@int_slack@4*c5@int_slack@9
      + 94038336 c5@int_slack@4*c5@int_slack@10 + 36255744 c5@int_slack@5^2
      + 145022976 c5@int_slack@5*c5@int_slack@6
      + 290045952 c5@int_slack@5*c5@int_slack@7
      + 580091904 c5@int_slack@5*c5@int_slack@8
      + 1160183808 c5@int_slack@5*c5@int_slack@9
      + 188076672 c5@int_slack@5*c5@int_slack@10 + 145022976 c5@int_slack@6^2
      + 580091904 c5@int_slack@6*c5@int_slack@7
      + 1160183808 c5@int_slack@6*c5@int_slack@8
      + 2320367616 c5@int_slack@6*c5@int_slack@9
      + 376153344 c5@int_slack@6*c5@int_slack@10 + 580091904 c5@int_slack@7^2
      + 2320367616 c5@int_slack@7*c5@int_slack@8
      + 4640735232 c5@int_slack@7*c5@int_slack@9
      + 752306688 c5@int_slack@7*c5@int_slack@10 + 2320367616 c5@int_slack@8^2
      + 9281470464 c5@int_slack@8*c5@int_slack@9
      + 1504613376 c5@int_slack@8*c5@int_slack@10 + 9281470464 c5@int_slack@9^2
      + 3009226752 c5@int_slack@9*c5@int_slack@10 + 243911934 c5@int_slack@10^2
      + 35406 c6@int_slack@0^2 + 141624 c6@int_slack@0*c6@int_slack@1
      + 212436 c6@int_slack@0*c6@int_slack@2 + 141624 c6@int_slack@1^2
      + 424872 c6@int_slack@1*c6@int_slack@2 + 318654 c6@int_slack@2^2
      + 35406 c7@int_slack@0^2 + 141624 c7@int_slack@0*c7@int_slack@1
      + 283248 c7@int_slack@0*c7@int_slack@2 + 141624 c7@int_slack@1^2
      + 566496 c7@int_slack@1*c7@int_slack@2 + 566496 c7@int_slack@2^2 ]/2 +
      42415077978
Subject To

Bounds
 0 <= x_0_1 <= 1
 0 <= x_0_2 <= 1
 0 <= x_1_0 <= 1
 0 <= x_1_2 <= 1
 0 <= x_2_0 <= 1
 0 <= x_2_1 <= 1
 0 <= cum_u_1@0 <= 1
 0 <= cum_u_1@1 <= 1
 0 <= cum_u_1@2 <= 1
 0 <= cum_u_1@3 <= 1
 0 <= cum_u_2@0 <= 1
 0 <= cum_u_2@1 <= 1
 0 <= cum_u_2@2 <= 1
 0 <= cum_u_2@3 <= 1
 0 <= c4@int_slack@0 <= 1
 0 <= c4@int_slack@1 <= 1
 0 <= c4@int_slack@2 <= 1
 0 <= c4@int_slack@3 <= 1
 0 <= c4@int_slack@4 <= 1
 0 <= c4@int_slack@5 <= 1
 0 <= c4@int_slack@6 <= 1
 0 <= c4@int_slack@7 <= 1
 0 <= c4@int_slack@8 <= 1
 0 <= c4@int_slack@9 <= 1
 0 <= c4@int_slack@10 <= 1
 0 <= c5@int_slack@0 <= 1
 0 <= c5@int_slack@1 <= 1
 0 <= c5@int_slack@2 <= 1
 0 <= c5@int_slack@3 <= 1
 0 <= c5@int_slack@4 <= 1
 0 <= c5@int_slack@5 <= 1
 0 <= c5@int_slack@6 <= 1
 0 <= c5@int_slack@7 <= 1
 0 <= c5@int_slack@8 <= 1
 0 <= c5@int_slack@9 <= 1
 0 <= c5@int_slack@10 <= 1
 0 <= c6@int_slack@0 <= 1
 0 <= c6@int_slack@1 <= 1
 0 <= c6@int_slack@2 <= 1
 0 <= c7@int_slack@0 <= 1
 0 <= c7@int_slack@1 <= 1
 0 <= c7@int_slack@2 <= 1

Binaries
 x_0_1 x_0_2 x_1_0 x_1_2 x_2_0 x_2_1 cum_u_1@0 cum_u_1@1 cum_u_1@2 cum_u_1@3
 cum_u_2@0 cum_u_2@1 cum_u_2@2 cum_u_2@3 c4@int_slack@0 c4@int_slack@1
 c4@int_slack@2 c4@int_slack@3 c4@int_slack@4 c4@int_slack@5 c4@int_slack@6
 c4@int_slack@7 c4@int_slack@8 c4@int_slack@9 c4@int_slack@10 c5@int_slack@0
 c5@int_slack@1 c5@int_slack@2 c5@int_slack@3 c5@int_slack@4 c5@int_slack@5
 c5@int_slack@6 c5@int_slack@7 c5@int_slack@8 c5@int_slack@9 c5@int_slack@10
 c6@int_slack@0 c6@int_slack@1 c6@int_slack@2 c7@int_slack@0 c7@int_slack@1
 c7@int_slack@2
End